% File represents an instance of a Composite Structure problem to be solved by a CP framework
% Created on 2025-03-26 10:41:26.369
T = 56;
n = 16;
m = 24;
edges = [(1, 2),
(5, 6),
(9, 10),
(13, 14),
(3, 2),
(7, 6),
(11, 10),
(15, 14),
(4, 3),
(8, 7),
(12, 11),
(16, 15),
(1, 5),
(5, 9),
(13, 9),
(2, 6),
(6, 10),
(14, 10),
(3, 7),
(7, 11),
(15, 11),
(4, 8),
(8, 12),
(16, 12)];
counts = [|2, 20, 2, 22,
|2, 18, 2, 22,
|2, 24, 2, 22,
|2, 24, 2, 28,
|2, 18, 2, 22,
|2, 18, 2, 20,
|2, 18, 2, 22,
|2, 24, 2, 22,
|2, 18, 2, 16,
|2, 16, 2, 16,
|2, 18, 2, 18,
|2, 22, 2, 20,
|2, 22, 2, 18,
|2, 18, 2, 16,
|2, 20, 2, 18,
|2, 24, 2, 20|];
